p cnf 18 504
1 2 3 4 0
-1 -2 -3 -4 0
2 3 4 5 0
-2 -3 -4 -5 0
3 4 5 6 0
-3 -4 -5 -6 0
4 5 6 7 0
-4 -5 -6 -7 0
5 6 7 8 0
-5 -6 -7 -8 0
6 7 8 9 0
-6 -7 -8 -9 0
7 8 9 10 0
-7 -8 -9 -10 0
8 9 10 11 0
-8 -9 -10 -11 0
9 10 11 12 0
-9 -10 -11 -12 0
10 11 12 13 0
-10 -11 -12 -13 0
11 12 13 14 0
-11 -12 -13 -14 0
12 13 14 15 0
-12 -13 -14 -15 0
13 14 15 16 0
-13 -14 -15 -16 0
14 15 16 17 0
-14 -15 -16 -17 0
15 16 17 18 0
-15 -16 -17 -18 0
16 17 18 1 0
-16 -17 -18 -1 0
17 18 1 2 0
-17 -18 -1 -2 0
18 1 2 3 0
-18 -1 -2 -3 0
1 3 5 7 0
-1 -3 -5 -7 0
2 4 6 8 0
-2 -4 -6 -8 0
3 5 7 9 0
-3 -5 -7 -9 0
4 6 8 10 0
-4 -6 -8 -10 0
5 7 9 11 0
-5 -7 -9 -11 0
6 8 10 12 0
-6 -8 -10 -12 0
7 9 11 13 0
-7 -9 -11 -13 0
8 10 12 14 0
-8 -10 -12 -14 0
9 11 13 15 0
-9 -11 -13 -15 0
10 12 14 16 0
-10 -12 -14 -16 0
11 13 15 17 0
-11 -13 -15 -17 0
12 14 16 18 0
-12 -14 -16 -18 0
13 15 17 1 0
-13 -15 -17 -1 0
14 16 18 2 0
-14 -16 -18 -2 0
15 17 1 3 0
-15 -17 -1 -3 0
16 18 2 4 0
-16 -18 -2 -4 0
17 1 3 5 0
-17 -1 -3 -5 0
18 2 4 6 0
-18 -2 -4 -6 0
1 4 7 10 0
-1 -4 -7 -10 0
2 5 8 11 0
-2 -5 -8 -11 0
3 6 9 12 0
-3 -6 -9 -12 0
4 7 10 13 0
-4 -7 -10 -13 0
5 8 11 14 0
-5 -8 -11 -14 0
6 9 12 15 0
-6 -9 -12 -15 0
7 10 13 16 0
-7 -10 -13 -16 0
8 11 14 17 0
-8 -11 -14 -17 0
9 12 15 18 0
-9 -12 -15 -18 0
10 13 16 1 0
-10 -13 -16 -1 0
11 14 17 2 0
-11 -14 -17 -2 0
12 15 18 3 0
-12 -15 -18 -3 0
13 16 1 4 0
-13 -16 -1 -4 0
14 17 2 5 0
-14 -17 -2 -5 0
15 18 3 6 0
-15 -18 -3 -6 0
16 1 4 7 0
-16 -1 -4 -7 0
17 2 5 8 0
-17 -2 -5 -8 0
18 3 6 9 0
-18 -3 -6 -9 0
1 5 9 13 0
-1 -5 -9 -13 0
2 6 10 14 0
-2 -6 -10 -14 0
3 7 11 15 0
-3 -7 -11 -15 0
4 8 12 16 0
-4 -8 -12 -16 0
5 9 13 17 0
-5 -9 -13 -17 0
6 10 14 18 0
-6 -10 -14 -18 0
7 11 15 1 0
-7 -11 -15 -1 0
8 12 16 2 0
-8 -12 -16 -2 0
9 13 17 3 0
-9 -13 -17 -3 0
10 14 18 4 0
-10 -14 -18 -4 0
11 15 1 5 0
-11 -15 -1 -5 0
12 16 2 6 0
-12 -16 -2 -6 0
13 17 3 7 0
-13 -17 -3 -7 0
14 18 4 8 0
-14 -18 -4 -8 0
15 1 5 9 0
-15 -1 -5 -9 0
16 2 6 10 0
-16 -2 -6 -10 0
17 3 7 11 0
-17 -3 -7 -11 0
18 4 8 12 0
-18 -4 -8 -12 0
1 6 11 16 0
-1 -6 -11 -16 0
2 7 12 17 0
-2 -7 -12 -17 0
3 8 13 18 0
-3 -8 -13 -18 0
4 9 14 1 0
-4 -9 -14 -1 0
5 10 15 2 0
-5 -10 -15 -2 0
6 11 16 3 0
-6 -11 -16 -3 0
7 12 17 4 0
-7 -12 -17 -4 0
8 13 18 5 0
-8 -13 -18 -5 0
9 14 1 6 0
-9 -14 -1 -6 0
10 15 2 7 0
-10 -15 -2 -7 0
11 16 3 8 0
-11 -16 -3 -8 0
12 17 4 9 0
-12 -17 -4 -9 0
13 18 5 10 0
-13 -18 -5 -10 0
14 1 6 11 0
-14 -1 -6 -11 0
15 2 7 12 0
-15 -2 -7 -12 0
16 3 8 13 0
-16 -3 -8 -13 0
17 4 9 14 0
-17 -4 -9 -14 0
18 5 10 15 0
-18 -5 -10 -15 0
1 8 15 4 0
-1 -8 -15 -4 0
2 9 16 5 0
-2 -9 -16 -5 0
3 10 17 6 0
-3 -10 -17 -6 0
4 11 18 7 0
-4 -11 -18 -7 0
5 12 1 8 0
-5 -12 -1 -8 0
6 13 2 9 0
-6 -13 -2 -9 0
7 14 3 10 0
-7 -14 -3 -10 0
8 15 4 11 0
-8 -15 -4 -11 0
9 16 5 12 0
-9 -16 -5 -12 0
10 17 6 13 0
-10 -17 -6 -13 0
11 18 7 14 0
-11 -18 -7 -14 0
12 1 8 15 0
-12 -1 -8 -15 0
13 2 9 16 0
-13 -2 -9 -16 0
14 3 10 17 0
-14 -3 -10 -17 0
15 4 11 18 0
-15 -4 -11 -18 0
16 5 12 1 0
-16 -5 -12 -1 0
17 6 13 2 0
-17 -6 -13 -2 0
18 7 14 3 0
-18 -7 -14 -3 0
1 9 17 7 0
-1 -9 -17 -7 0
2 10 18 8 0
-2 -10 -18 -8 0
3 11 1 9 0
-3 -11 -1 -9 0
4 12 2 10 0
-4 -12 -2 -10 0
5 13 3 11 0
-5 -13 -3 -11 0
6 14 4 12 0
-6 -14 -4 -12 0
7 15 5 13 0
-7 -15 -5 -13 0
8 16 6 14 0
-8 -16 -6 -14 0
9 17 7 15 0
-9 -17 -7 -15 0
10 18 8 16 0
-10 -18 -8 -16 0
11 1 9 17 0
-11 -1 -9 -17 0
12 2 10 18 0
-12 -2 -10 -18 0
13 3 11 1 0
-13 -3 -11 -1 0
14 4 12 2 0
-14 -4 -12 -2 0
15 5 13 3 0
-15 -5 -13 -3 0
16 6 14 4 0
-16 -6 -14 -4 0
17 7 15 5 0
-17 -7 -15 -5 0
18 8 16 6 0
-18 -8 -16 -6 0
1 11 3 13 0
-1 -11 -3 -13 0
2 12 4 14 0
-2 -12 -4 -14 0
3 13 5 15 0
-3 -13 -5 -15 0
4 14 6 16 0
-4 -14 -6 -16 0
5 15 7 17 0
-5 -15 -7 -17 0
6 16 8 18 0
-6 -16 -8 -18 0
7 17 9 1 0
-7 -17 -9 -1 0
8 18 10 2 0
-8 -18 -10 -2 0
9 1 11 3 0
-9 -1 -11 -3 0
10 2 12 4 0
-10 -2 -12 -4 0
11 3 13 5 0
-11 -3 -13 -5 0
12 4 14 6 0
-12 -4 -14 -6 0
13 5 15 7 0
-13 -5 -15 -7 0
14 6 16 8 0
-14 -6 -16 -8 0
15 7 17 9 0
-15 -7 -17 -9 0
16 8 18 10 0
-16 -8 -18 -10 0
17 9 1 11 0
-17 -9 -1 -11 0
18 10 2 12 0
-18 -10 -2 -12 0
1 12 5 16 0
-1 -12 -5 -16 0
2 13 6 17 0
-2 -13 -6 -17 0
3 14 7 18 0
-3 -14 -7 -18 0
4 15 8 1 0
-4 -15 -8 -1 0
5 16 9 2 0
-5 -16 -9 -2 0
6 17 10 3 0
-6 -17 -10 -3 0
7 18 11 4 0
-7 -18 -11 -4 0
8 1 12 5 0
-8 -1 -12 -5 0
9 2 13 6 0
-9 -2 -13 -6 0
10 3 14 7 0
-10 -3 -14 -7 0
11 4 15 8 0
-11 -4 -15 -8 0
12 5 16 9 0
-12 -5 -16 -9 0
13 6 17 10 0
-13 -6 -17 -10 0
14 7 18 11 0
-14 -7 -18 -11 0
15 8 1 12 0
-15 -8 -1 -12 0
16 9 2 13 0
-16 -9 -2 -13 0
17 10 3 14 0
-17 -10 -3 -14 0
18 11 4 15 0
-18 -11 -4 -15 0
1 14 9 4 0
-1 -14 -9 -4 0
2 15 10 5 0
-2 -15 -10 -5 0
3 16 11 6 0
-3 -16 -11 -6 0
4 17 12 7 0
-4 -17 -12 -7 0
5 18 13 8 0
-5 -18 -13 -8 0
6 1 14 9 0
-6 -1 -14 -9 0
7 2 15 10 0
-7 -2 -15 -10 0
8 3 16 11 0
-8 -3 -16 -11 0
9 4 17 12 0
-9 -4 -17 -12 0
10 5 18 13 0
-10 -5 -18 -13 0
11 6 1 14 0
-11 -6 -1 -14 0
12 7 2 15 0
-12 -7 -2 -15 0
13 8 3 16 0
-13 -8 -3 -16 0
14 9 4 17 0
-14 -9 -4 -17 0
15 10 5 18 0
-15 -10 -5 -18 0
16 11 6 1 0
-16 -11 -6 -1 0
17 12 7 2 0
-17 -12 -7 -2 0
18 13 8 3 0
-18 -13 -8 -3 0
1 15 11 7 0
-1 -15 -11 -7 0
2 16 12 8 0
-2 -16 -12 -8 0
3 17 13 9 0
-3 -17 -13 -9 0
4 18 14 10 0
-4 -18 -14 -10 0
5 1 15 11 0
-5 -1 -15 -11 0
6 2 16 12 0
-6 -2 -16 -12 0
7 3 17 13 0
-7 -3 -17 -13 0
8 4 18 14 0
-8 -4 -18 -14 0
9 5 1 15 0
-9 -5 -1 -15 0
10 6 2 16 0
-10 -6 -2 -16 0
11 7 3 17 0
-11 -7 -3 -17 0
12 8 4 18 0
-12 -8 -4 -18 0
13 9 5 1 0
-13 -9 -5 -1 0
14 10 6 2 0
-14 -10 -6 -2 0
15 11 7 3 0
-15 -11 -7 -3 0
16 12 8 4 0
-16 -12 -8 -4 0
17 13 9 5 0
-17 -13 -9 -5 0
18 14 10 6 0
-18 -14 -10 -6 0
1 16 13 10 0
-1 -16 -13 -10 0
2 17 14 11 0
-2 -17 -14 -11 0
3 18 15 12 0
-3 -18 -15 -12 0
4 1 16 13 0
-4 -1 -16 -13 0
5 2 17 14 0
-5 -2 -17 -14 0
6 3 18 15 0
-6 -3 -18 -15 0
7 4 1 16 0
-7 -4 -1 -16 0
8 5 2 17 0
-8 -5 -2 -17 0
9 6 3 18 0
-9 -6 -3 -18 0
10 7 4 1 0
-10 -7 -4 -1 0
11 8 5 2 0
-11 -8 -5 -2 0
12 9 6 3 0
-12 -9 -6 -3 0
13 10 7 4 0
-13 -10 -7 -4 0
14 11 8 5 0
-14 -11 -8 -5 0
15 12 9 6 0
-15 -12 -9 -6 0
16 13 10 7 0
-16 -13 -10 -7 0
17 14 11 8 0
-17 -14 -11 -8 0
18 15 12 9 0
-18 -15 -12 -9 0
1 17 15 13 0
-1 -17 -15 -13 0
2 18 16 14 0
-2 -18 -16 -14 0
3 1 17 15 0
-3 -1 -17 -15 0
4 2 18 16 0
-4 -2 -18 -16 0
5 3 1 17 0
-5 -3 -1 -17 0
6 4 2 18 0
-6 -4 -2 -18 0
7 5 3 1 0
-7 -5 -3 -1 0
8 6 4 2 0
-8 -6 -4 -2 0
9 7 5 3 0
-9 -7 -5 -3 0
10 8 6 4 0
-10 -8 -6 -4 0
11 9 7 5 0
-11 -9 -7 -5 0
12 10 8 6 0
-12 -10 -8 -6 0
13 11 9 7 0
-13 -11 -9 -7 0
14 12 10 8 0
-14 -12 -10 -8 0
15 13 11 9 0
-15 -13 -11 -9 0
16 14 12 10 0
-16 -14 -12 -10 0
17 15 13 11 0
-17 -15 -13 -11 0
18 16 14 12 0
-18 -16 -14 -12 0
1 18 17 16 0
-1 -18 -17 -16 0
2 1 18 17 0
-2 -1 -18 -17 0
3 2 1 18 0
-3 -2 -1 -18 0
4 3 2 1 0
-4 -3 -2 -1 0
5 4 3 2 0
-5 -4 -3 -2 0
6 5 4 3 0
-6 -5 -4 -3 0
7 6 5 4 0
-7 -6 -5 -4 0
8 7 6 5 0
-8 -7 -6 -5 0
9 8 7 6 0
-9 -8 -7 -6 0
10 9 8 7 0
-10 -9 -8 -7 0
11 10 9 8 0
-11 -10 -9 -8 0
12 11 10 9 0
-12 -11 -10 -9 0
13 12 11 10 0
-13 -12 -11 -10 0
14 13 12 11 0
-14 -13 -12 -11 0
15 14 13 12 0
-15 -14 -13 -12 0
16 15 14 13 0
-16 -15 -14 -13 0
17 16 15 14 0
-17 -16 -15 -14 0
18 17 16 15 0
-18 -17 -16 -15 0
